c 1 x1
c 2 x3
c 3 x4
c 4 x5
c 5 x6
c 6 x7
c 7 x9
c 8 __spec__0
c 9 __spec__1
c 10 __spec__2
c 11 __spec__3
c 12 __spec__4
c 13 __spec__5
c 14 __spec__6
c 15 __spec__7
c 16 __spec__8
c 17 __spec__9
c 18 __spec__10
c 19 __spec__11
c 20 __spec__12
c 21 __spec__13
c 22 __spec__14
c 23 __spec__15
c 24 __spec__16
c 25 __spec__17
c 26 __spec__18
c MAIN 27 __spec__19
p cnf 27 26
27 0
-8 -2 0
-9 8 5 0
-10 -5 0
-11 2 10 0
11 -12 0
9 -12 0
-13 -4 0
-14 -3 0
-15 14 13 0
-16 7 7 0
16 -17 0
15 -17 0
-18 17 12 0
-19 3 7 0
-20 6 1 0
20 -21 0
19 -21 0
-22 2 7 0
-23 -3 0
-24 1 23 0
24 -25 0
22 -25 0
-26 25 21 0
26 -27 0
18 -27 0
